250 10 47 61
-1
-1
-1
-1
-1
-1
-1
-1
-1
-1
-1
1 7 -1
2 -1
8 -1
-1
2 -1
4 9 -1
6 10 -1
-1
6 -1
-1
3 -1
1 10 -1
1 -1
-1
3 5 -1
-1
-1
-1
4 5 8 -1
3 -1
3 -1
-1
-1
-1
4 -1
-1
-1
5 -1
6 -1
4 -1
-1
-1
1 2 10 -1
10 -1
6 -1
-1
-1
-1
2 -1
-1
-1
4 -1
-1
-1
-1
3 -1
5 -1
8 -1
10 -1
-1
-1
-1
1 -1
-1
-1
2 4 -1
7 -1
8 -1
2 4 -1
-1
-1
-1
-1
-1
-1
-1
-1
10 -1
-1
-1
1 -1
6 -1
-1
1 -1
-1
-1
1 -1
-1
-1
-1
-1
-1
10 -1
-1
1 8 -1
8 -1
-1
-1
2 6 -1
-1
-1
-1
9 -1
-1
-1
-1
-1
-1
-1
-1
8 -1
2 3 -1
-1
-1
-1
5 -1
-1
10 -1
-1
2 -1
-1
-1
-1
-1
6 -1
1 -1
-1
-1
8 9 -1
7 -1
-1
-1
-1
2 6 -1
-1
2 -1
4 -1
-1
2 -1
-1
9 -1
8 -1
8 -1
-1
-1
1 5 -1
7 10 -1
8 -1
1 -1
-1
-1
-1
-1
-1
-1
9 -1
-1
-1
-1
7 10 -1
-1
-1
9 -1
-1
-1
-1
6 10 -1
-1
-1
-1
3 5 10 -1
-1
-1
-1
-1
3 -1
6 -1
-1
8 -1
-1
-1
10 -1
-1
9 -1
-1
-1
-1
1 -1
-1
-1
-1
10 -1
-1
-1
-1
-1
7 -1
-1
-1
10 -1
-1
-1
-1
6 -1
-1
-1
-1
2 -1
-1
-1
8 -1
-1
9 -1
-1
-1
-1
-1
-1
-1
8 -1
-1
3 -1
-1
-1
10 -1
-1
6 -1
-1
-1
7 8 -1
6 -1
9 -1
7 -1
3 7 -1
-1
-1
2 -1
2 -1
-1
8 -1
-1
-1
3 -1
-1
-1
-1
-1
-1
-1
